0 24 
1 28 
2 30 
3 29 
4 30 
5 31 
6 30 
7 29 
8 28 
9 26 
10 25 
11 24 
12 24 
13 24 
14 25 
15 22 
16 19 
17 18 
18 16 
19 14 
20 14 
21 14 
22 15 
23 14 
24 13 
25 10 
26 9 
27 9 
28 8 
29 7 
30 6 
31 7 
32 8 
33 7 
34 5 
35 5 
36 5 
37 3 
38 2 
39 3 
40 3 
41 5 
42 6 
43 8 
44 9 
45 7 
46 5 
47 6 
48 4 
49 4 
50 4 
51 4 
52 3 
53 2 
54 1 
55 0 
56 0 

